Normalized Data/p02_18_normalized_split0.vrp
NAME:p02_18_NORMALIZED_split
BEST_KNOWN: 0
COMMENT: 0
DIMENSION: 292
CAPACITY: 100
EDGE_WEIGHT_FORMAT: FUNCTION
EDGE_WEIGHT_TYPE: EXACT_2D
NODE_COORD_SECTION
1 0.00000 0.00000
2 27 47
3 27 47
4 27 47
5 27 47
6 27 47
7 -5 25
8 -5 25
9 -5 25
10 -5 25
11 -5 25
12 -5 25
13 41 -35
14 41 -35
15 41 -35
16 41 -35
17 41 -35
18 41 -35
19 41 -35
20 -49 23
21 48 -20
22 48 -20
23 48 -20
24 48 -20
25 48 -20
26 35 -35
27 35 -35
28 35 -35
29 35 -35
30 35 -35
31 49 24
32 49 24
33 49 24
34 12 8
35 12 8
36 12 8
37 12 8
38 12 8
39 -7 10
40 21 -19
41 21 -19
42 21 -19
43 21 -19
44 21 -19
45 21 -19
46 9 15
47 9 15
48 9 15
49 13 6
50 13 6
51 13 6
52 -13 8
53 -13 8
54 -13 8
55 -13 8
56 -13 8
57 -13 8
58 -45 -30
59 -45 -30
60 36 -19
61 36 -19
62 36 -19
63 -4 11
64 -4 11
65 -4 11
66 45 48
67 45 48
68 45 48
69 45 48
70 -49 7
71 -49 7
72 -49 7
73 -49 7
74 -49 7
75 27 12
76 27 12
77 27 12
78 -2 32
79 -2 32
80 -2 32
81 -2 32
82 -2 32
83 -2 32
84 -2 32
85 6 8
86 6 8
87 -12 1
88 -42 33
89 -42 33
90 -42 33
91 -42 33
92 -42 33
93 25 5
94 25 5
95 25 5
96 -3 0
97 -3 0
98 -3 0
99 -3 0
100 29 -12
101 29 -12
102 29 -12
103 29 -12
104 29 -12
105 -14 43
106 -14 43
107 -11 -45
108 -11 -45
109 -16 32
110 -16 32
111 -16 32
112 -16 32
113 -16 32
114 -16 32
115 37 -29
116 37 -29
117 37 -29
118 37 -29
119 37 -29
120 37 -29
121 -34 32
122 -34 32
123 -34 32
124 -34 32
125 -34 32
126 -18 -47
127 -18 -47
128 -18 -47
129 23 -21
130 23 -21
131 13 44
132 13 44
133 13 44
134 -6 -49
135 -6 -49
136 -6 -49
137 50 3
138 50 3
139 50 3
140 50 3
141 17 -37
142 17 -37
143 17 -37
144 17 -37
145 8 1
146 8 1
147 8 1
148 8 1
149 8 1
150 48 38
151 48 38
152 -50 -48
153 -50 -48
154 -50 -48
155 4 -44
156 4 -44
157 4 -44
158 4 -44
159 4 -44
160 14 -25
161 14 -25
162 14 -25
163 24 -46
164 24 -46
165 24 -46
166 24 -46
167 24 -46
168 -25 -2
169 -25 -2
170 -25 -2
171 -25 -2
172 -25 -2
173 25 48
174 25 48
175 25 48
176 25 48
177 25 48
178 -13 -18
179 -13 -18
180 -13 -18
181 -13 -18
182 20 -33
183 20 -33
184 20 -33
185 20 -33
186 -6 7
187 -6 7
188 -6 7
189 21 28
190 21 28
191 38 -3
192 38 -3
193 38 -3
194 38 -3
195 38 -3
196 38 -3
197 -1 5
198 -1 5
199 -1 5
200 -18 -6
201 -18 -6
202 -18 -6
203 -18 -6
204 -18 -6
205 -18 -6
206 1 -24
207 1 -24
208 1 -24
209 1 -24
210 1 -24
211 -43 28
212 -43 28
213 -43 28
214 -43 28
215 -43 28
216 -43 28
217 -1 25
218 -1 25
219 -1 25
220 -1 25
221 -1 25
222 -1 25
223 44 38
224 44 38
225 44 38
226 44 38
227 29 -19
228 29 -19
229 49 -15
230 49 -15
231 49 -15
232 49 -15
233 49 -15
234 -39 9
235 -39 9
236 -39 9
237 26 39
238 26 39
239 26 39
240 26 39
241 26 39
242 26 39
243 -7 45
244 -7 45
245 -7 45
246 -7 45
247 -49 -26
248 -49 -26
249 -49 -26
250 43 -13
251 43 -13
252 12 22
253 15 40
254 15 40
255 15 40
256 15 40
257 15 40
258 12 3
259 12 3
260 12 3
261 30 11
262 30 11
263 30 11
264 30 11
265 30 11
266 30 11
267 45 -19
268 45 -19
269 45 -19
270 45 -19
271 45 -19
272 2 33
273 2 33
274 35 -42
275 35 -42
276 35 -42
277 35 -42
278 -41 0
279 -41 0
280 -41 0
281 13 50
282 -15 -33
283 -15 -33
284 -15 -33
285 -15 -33
286 -15 -33
287 -3 42
288 -3 42
289 -3 42
290 -3 42
291 -3 42
292 17 -45
DEMAND_SECTION
1 0
2 20
3 10
4 5
5 1
6 1
7 20
8 5
9 1
10 1
11 1
12 1
13 20
14 10
15 5
16 1
17 1
18 1
19 1
20 20
21 20
22 20
23 5
24 1
25 1
26 20
27 20
28 1
29 1
30 1
31 20
32 20
33 5
34 20
35 20
36 5
37 1
38 1
39 20
40 20
41 10
42 5
43 1
44 1
45 1
46 10
47 5
48 1
49 20
50 5
51 1
52 20
53 5
54 1
55 1
56 1
57 1
58 20
59 20
60 20
61 10
62 5
63 20
64 20
65 1
66 20
67 20
68 1
69 1
70 20
71 10
72 1
73 1
74 1
75 20
76 5
77 1
78 20
79 10
80 5
81 1
82 1
83 1
84 1
85 20
86 20
87 20
88 10
89 1
90 1
91 1
92 1
93 10
94 5
95 1
96 10
97 5
98 1
99 1
100 10
101 1
102 1
103 1
104 1
105 20
106 5
107 20
108 1
109 20
110 20
111 1
112 1
113 1
114 1
115 20
116 10
117 5
118 1
119 1
120 1
121 20
122 1
123 1
124 1
125 1
126 10
127 1
128 1
129 20
130 10
131 20
132 10
133 5
134 20
135 10
136 1
137 20
138 10
139 5
140 1
141 20
142 10
143 1
144 1
145 20
146 10
147 5
148 1
149 1
150 20
151 20
152 20
153 10
154 5
155 20
156 20
157 1
158 1
159 1
160 20
161 10
162 5
163 20
164 20
165 5
166 1
167 1
168 10
169 1
170 1
171 1
172 1
173 20
174 10
175 5
176 1
177 1
178 10
179 5
180 1
181 1
182 10
183 5
184 1
185 1
186 20
187 20
188 1
189 20
190 20
191 20
192 10
193 1
194 1
195 1
196 1
197 10
198 5
199 1
200 20
201 20
202 5
203 1
204 1
205 1
206 20
207 10
208 5
209 1
210 1
211 20
212 20
213 5
214 1
215 1
216 1
217 10
218 5
219 1
220 1
221 1
222 1
223 20
224 1
225 1
226 1
227 20
228 10
229 20
230 5
231 1
232 1
233 1
234 20
235 10
236 5
237 20
238 5
239 1
240 1
241 1
242 1
243 10
244 1
245 1
246 1
247 10
248 1
249 1
250 20
251 10
252 20
253 20
254 1
255 1
256 1
257 1
258 20
259 10
260 5
261 20
262 20
263 5
264 1
265 1
266 1
267 20
268 1
269 1
270 1
271 1
272 20
273 5
274 10
275 1
276 1
277 1
278 20
279 10
280 1
281 20
282 20
283 20
284 1
285 1
286 1
287 20
288 1
289 1
290 1
291 1
292 20
DEPOT_SECTION
1
-1
EOF