Normalized Data/p02_18_normalized_split0.sol
291 -8 9 6 7 11 10 104 105 245 242 243 244 288 289 290 287 286 82 79 80 83 -27 26 29 25 28 274 275 276 273 12 17 15 18 14 13 16 116 -36 33 34 37 35 48 50 257 258 -40 44 43 39 42 41 129 128 227 226 -46 251 271 272 77 78 81 217 218 219 216 220 221 -47 45 240 236 241 238 65 68 66 67 222 223 225 224 -49 264 262 265 32 30 31 150 149 -51 54 71 73 70 72 69 278 277 279 170 167 171 169 168 -55 53 52 56 210 123 122 124 121 120 112 109 110 108 111 113 64 -63 62 38 185 186 -76 75 74 260 263 261 92 94 93 259 148 147 145 -86 203 202 201 204 199 200 180 178 179 281 285 283 284 -96 97 98 95 197 198 196 84 85 144 146 -103 102 101 100 99 61 59 60 115 118 117 119 114 181 182 183 184 -130 131 132 254 253 252 255 256 189 188 -141 143 142 140 162 163 166 165 164 291 -159 161 160 155 157 156 158 154 209 205 -177 152 151 153 57 58 246 248 247 -187 88 89 90 91 87 214 212 213 211 215 19 234 233 235 -191 192 194 193 195 190 136 139 138 137 250 249 -208 206 207 134 135 133 106 107 126 127 125 282 -230 228 232 231 229 22 21 23 24 20 269 268 266 267 270 -237 239 2 5 4 3 1 172 175 174 173 176 280 0 





OBJ=
2234.254
BEST_KNOWN=
0.000